StudentsNr = 10;
InstructorsNr = 92;
DaysNr = 2;
SlotsPerDay = 40;
AvailabilitySlotsLenght = 40;
RoomNr = 1;
ProgrammNr = 2;
DegreeNr = 3;
RolesNr = 2;
CoursesNr = 7;
InstructorsProgramm = [{1, 2}, {1, 2}, {1}, {1, 2}, {2}, {1}, {1}, {1, 2}, {2}, {1}, {1}, {2}, {2}, {1, 2}, {2}, {1, 2}, {2}, {2}, {1, 2}, {2}, {1}, {1}, {1, 2}, {1}, {2}, {1}, {1, 2}, {2}, {1}, {1, 2}, {1, 2}, {2}, {1}, {1}, {1}, {2}, {1}, {2}, {1, 2}, {1}, {2}, {2}, {1}, {1}, {1}, {2}, {1}, {1, 2}, {2}, {2}, {1}, {1}, {1}, {2}, {2}, {1, 2}, {1, 2}, {1}, {1}, {1, 2}, {1}, {1, 2}, {2}, {2}, {2}, {2}, {1}, {1}, {2}, {1}, {1, 2}, {1}, {1}, {1}, {1}, {1, 2}, {1, 2}, {2}, {1}, {1}, {1}, {2}, {2}, {1, 2}, {1}, {1, 2}, {1}, {2}, {2}, {1}, {1}, {2}];
InstructorRolesPerProgramm = [|{1, 2, 3, 4, 7, 8, 14, 16, 24, 27, 29, 30, 33, 40, 47, 51, 68, 70, 71, 73, 74, 75, 76, 79, 80, 81, 85, 87, 90, 91}, {3, 16, 19, 23, 26, 27, 31, 35, 39, 40, 44, 45, 52, 58, 59, 60, 67, 74, 75, 76, 80, 81, 84, 86}|{1, 2, 4, 5, 8, 14, 15, 16, 27, 30, 32, 36, 42, 46, 50, 54, 55, 64, 65, 66, 69, 71, 76, 83, 92}, {12, 13, 15, 16, 17, 18, 19, 20, 23, 27, 31, 32, 36, 38, 39, 41, 42, 46, 49, 50, 55, 60, 64, 65, 66, 76, 78, 84, 86, 92}|];
InstructorsAvailability = [|0, 1, |0, 1, |0, 1, |1, 0, |0, 1, |0, 0, |1, 1, |1, 1, |1, 1, |1, 1, |0, 1, |1, 1, |0, 1, |1, 1, |1, 1, |0, 1, |1, 1, |0, 1, |1, 1, |1, 0, |0, 0, |1, 1, |0, 1, |0, 1, |1, 1, |1, 1, |1, 1, |0, 1, |1, 1, |0, 1, |1, 1, |0, 0, |1, 1, |1, 1, |0, 1, |1, 1, |0, 1, |0, 1, |1, 0, |1, 1, |0, 1, |1, 1, |0, 0, |0, 0, |0, 0, |1, 1, |0, 0, |0, 0, |0, 1, |1, 1, |1, 1, |0, 0, |1, 1, |0, 0, |1, 1, |0, 0, |0, 1, |1, 0, |0, 1, |1, 0, |0, 0, |0, 1, |1, 1, |1, 0, |0, 0, |0, 1, |1, 1, |0, 1, |1, 1, |1, 1, |1, 1, |1, 1, |1, 1, |0, 1, |0, 0, |0, 1, |0, 1, |0, 0, |0, 1, |0, 1, |1, 1, |1, 1, |1, 1, |1, 1, |0, 1, |0, 1, |0, 1, |0, 1, |1, 1, |1, 1, |0, 1, |1, 1|];
StudentsProgramm = [2, 2, 1, 2, 1, 2, 2, 1, 1, 2];
StudentsDegree = [2, 2, 3, 1, 3, 2, 1, 1, 3, 1];
StudentsSupervisorId = [86, 86, 45, 12, 58, 31, 28, 37, 24, 83];
StudentsCourseIds = [{4, 6, 7}, {2, 3, 4}, {}, {1, 2, 7}, {}, {1, 6, 7}, {2, 4, 7}, {4, 5, 7}, {}, {2, 3, 7}];
StudentsAvailability = [|0, 1, |0, 0, |0, 0, |0, 0, |0, 0, |0, 1, |1, 1, |1, 1, |1, 1, |0, 1|];
TheoryticalMinCard = [0, 0, 0, 0, 0, 0, 0, 0, 0, 0];
CoursesInstructorIds = [{4, 6, 10, 11, 14, 16, 18, 19, 20, 21, 22, 26, 29, 31, 32, 33, 34, 35, 44, 49, 59, 61, 62, 63, 77, 79, 82}, {2, 4, 5, 17, 21, 22, 23, 24, 25, 28, 30, 34, 36, 37, 38, 39, 46, 50, 54, 56, 60, 65, 66, 71, 72, 73, 78, 85, 87, 89, 90}, {1, 3, 5, 9, 10, 11, 15, 16, 17, 19, 20, 21, 24, 25, 30, 31, 32, 33, 34, 35, 36, 37, 38, 40, 41, 43, 45, 50, 51, 54, 56, 58, 59, 60, 62, 63, 64, 66, 67, 68, 69, 72, 73, 77, 78, 79, 82, 83, 85, 86, 87, 89}, {1, 3, 4, 5, 6, 8, 9, 11, 12, 13, 14, 17, 18, 21, 23, 24, 27, 28, 30, 32, 34, 37, 39, 41, 43, 44, 45, 46, 47, 48, 49, 50, 53, 55, 56, 57, 60, 61, 62, 65, 66, 67, 68, 71, 76, 77, 79, 80, 81, 82, 84, 85, 86, 88, 91, 92}, {3, 4, 5, 7, 9, 12, 19, 20, 28, 30, 31, 32, 33, 35, 36, 38, 41, 43, 46, 47, 50, 51, 53, 59, 61, 62, 64, 66, 71, 73, 75, 78, 79, 82, 83, 90, 91, 92}, {11, 12, 25, 29, 36, 46, 47, 51, 57, 72, 76, 81, 88, 91}, {4, 13, 14, 15, 17, 19, 21, 22, 23, 24, 25, 28, 32, 36, 38, 39, 43, 44, 48, 49, 50, 55, 57, 61, 66, 69, 70, 72, 73, 76, 83, 84, 88, 90, 91, 92}];
RolesDemands = [23, 24];
RolesContinuity = [];
ExamLen = [1, 1, 1, 2, 1, 1, 2, 2, 1, 2];
LunchTsMinLen = 1;
LunchStarts = [15..22, 60..70];
SupervisorAvailable = 5;
OptimalLunchLenght = [0, 1];
OptimalStartTs = [0, 0];
OptimalFinishTs = [1, 40];
MinimizeRooms = 200;
RolesSoftContinuity = [|1, 2|0, 3|];
SameDegreeInRoom = 20;
Mergeability = 2;
